db/data/137308405167513247732539268213274915854.z3.out
-------------------
2500.287022648
